c colouring generated by benchmark framework
p edge 425 8688
v 1 5
v 2 25
v 3 28
v 4 21
v 5 20
v 6 19
v 7 18
v 8 4
v 9 3
v 10 13
v 11 1
v 12 17
v 13 7
v 14 0
v 15 2
v 16 10
v 17 21
v 18 9
v 19 7
v 20 24
v 21 14
v 22 5
v 23 25
v 24 3
v 25 2
v 26 1
v 27 13
v 28 10
v 29 4
v 30 28
v 31 0
v 32 27
v 33 11
v 34 22
v 35 6
v 36 27
v 37 11
v 38 11
v 39 16
v 40 20
v 41 11
v 42 13
v 43 16
v 44 16
v 45 12
v 46 24
v 47 8
v 48 12
v 49 24
v 50 22
v 51 11
v 52 17
v 53 2
v 54 23
v 55 16
v 56 12
v 57 15
v 58 16
v 59 15
v 60 16
v 61 18
v 62 20
v 63 26
v 64 16
v 65 18
v 66 19
v 67 20
v 68 23
v 69 18
v 70 6
v 71 20
v 72 6
v 73 6
v 74 6
v 75 6
v 76 23
v 77 6
v 78 26
v 79 6
v 80 8
v 81 9
v 82 11
v 83 12
v 84 14
v 85 15
v 86 16
v 87 6
v 88 6
v 89 6
v 90 2
v 91 8
v 92 12
v 93 8
v 94 8
v 95 8
v 96 18
v 97 16
v 98 15
v 99 17
v 100 12
v 101 16
v 102 17
v 103 19
v 104 20
v 105 15
v 106 22
v 107 11
v 108 18
v 109 17
v 110 19
v 111 19
v 112 22
v 113 17
v 114 26
v 115 23
v 116 18
v 117 18
v 118 11
v 119 2
v 120 18
v 121 26
v 122 8
v 123 23
v 124 22
v 125 26
v 126 22
v 127 15
v 128 29
v 129 12
v 130 29
v 131 19
v 132 15
v 133 12
v 134 12
v 135 22
v 136 12
v 137 15
v 138 17
v 139 15
v 140 22
v 141 16
v 142 16
v 143 16
v 144 17
v 145 16
v 146 16
v 147 17
v 148 16
v 149 16
v 150 16
v 151 5
v 152 16
v 153 16
v 154 17
v 155 16
v 156 15
v 157 16
v 158 2
v 159 17
v 160 17
v 161 19
v 162 20
v 163 17
v 164 18
v 165 20
v 166 8
v 167 25
v 168 17
v 169 19
v 170 17
v 171 17
v 172 26
v 173 29
v 174 20
v 175 17
v 176 29
v 177 18
v 178 18
v 179 19
v 180 18
v 181 23
v 182 20
v 183 22
v 184 19
v 185 18
v 186 17
v 187 23
v 188 22
v 189 20
v 190 18
v 191 20
v 192 20
v 193 26
v 194 23
v 195 26
v 196 22
v 197 26
v 198 17
v 199 17
v 200 23
v 201 22
v 202 22
v 203 23
v 204 24
v 205 23
v 206 22
v 207 22
v 208 26
v 209 29
v 210 17
v 211 22
v 212 20
v 213 17
v 214 22
v 215 23
v 216 20
v 217 17
v 218 20
v 219 22
v 220 23
v 221 26
v 222 22
v 223 26
v 224 23
v 225 26
v 226 29
v 227 24
v 228 23
v 229 22
v 230 23
v 231 22
v 232 27
v 233 14
v 234 26
v 235 18
v 236 12
v 237 29
v 238 12
v 239 2
v 240 12
v 241 12
v 242 8
v 243 23
v 244 8
v 245 6
v 246 8
v 247 6
v 248 16
v 249 15
v 250 23
v 251 11
v 252 22
v 253 12
v 254 8
v 255 6
v 256 12
v 257 15
v 258 8
v 259 12
v 260 16
v 261 26
v 262 12
v 263 15
v 264 17
v 265 22
v 266 16
v 267 16
v 268 29
v 269 18
v 270 21
v 271 20
v 272 22
v 273 22
v 274 17
v 275 18
v 276 12
v 277 15
v 278 15
v 279 20
v 280 16
v 281 29
v 282 15
v 283 12
v 284 12
v 285 26
v 286 15
v 287 15
v 288 18
v 289 23
v 290 15
v 291 16
v 292 15
v 293 15
v 294 15
v 295 15
v 296 16
v 297 18
v 298 16
v 299 26
v 300 15
v 301 15
v 302 15
v 303 16
v 304 15
v 305 8
v 306 16
v 307 15
v 308 15
v 309 15
v 310 20
v 311 16
v 312 10
v 313 18
v 314 20
v 315 19
v 316 18
v 317 20
v 318 17
v 319 19
v 320 19
v 321 11
v 322 3
v 323 11
v 324 14
v 325 18
v 326 13
v 327 18
v 328 18
v 329 19
v 330 19
v 331 19
v 332 20
v 333 19
v 334 22
v 335 20
v 336 20
v 337 22
v 338 23
v 339 14
v 340 22
v 341 23
v 342 22
v 343 5
v 344 22
v 345 17
v 346 29
v 347 20
v 348 17
v 349 17
v 350 22
v 351 20
v 352 23
v 353 22
v 354 19
v 355 22
v 356 22
v 357 26
v 358 26
v 359 26
v 360 29
v 361 28
v 362 13
v 363 29
v 364 23
v 365 21
v 366 23
v 367 1
v 368 18
v 369 16
v 370 22
v 371 15
v 372 29
v 373 18
v 374 15
v 375 1
v 376 18
v 377 23
v 378 20
v 379 19
v 380 2
v 381 19
v 382 19
v 383 19
v 384 23
v 385 26
v 386 0
v 387 27
v 388 28
v 389 23
v 390 12
v 391 12
v 392 12
v 393 15
v 394 12
v 395 16
v 396 15
v 397 15
v 398 19
v 399 7
v 400 16
v 401 20
v 402 22
v 403 23
v 404 22
v 405 26
v 406 19
v 407 22
v 408 15
v 409 15
v 410 16
v 411 15
v 412 16
v 413 26
v 414 19
v 415 0
v 416 26
v 417 23
v 418 6
v 419 29
v 420 12
v 421 16
v 422 5
v 423 15
v 424 23
v 425 12
